100 2994
1 3
1 4
1 5
1 6
1 7
1 10
1 12
1 13
1 14
1 15
1 17
1 18
1 19
1 20
1 22
1 23
1 25
1 27
1 28
1 30
1 31
1 32
1 33
1 34
1 35
1 42
1 46
1 48
1 51
1 52
1 53
1 54
1 57
1 58
1 59
1 61
1 62
1 63
1 64
1 65
1 68
1 70
1 71
1 72
1 74
1 78
1 79
1 80
1 81
1 83
1 84
1 85
1 86
1 87
1 89
1 90
1 91
1 92
1 93
1 94
1 96
1 97
1 99
2 3
2 4
2 6
2 7
2 10
2 12
2 13
2 14
2 15
2 18
2 20
2 21
2 22
2 24
2 27
2 29
2 30
2 31
2 33
2 35
2 36
2 37
2 39
2 42
2 43
2 45
2 46
2 47
2 48
2 49
2 50
2 52
2 55
2 56
2 60
2 63
2 65
2 69
2 70
2 71
2 73
2 74
2 75
2 77
2 78
2 80
2 81
2 82
2 84
2 85
2 87
2 88
2 89
2 90
2 92
2 95
2 96
2 97
2 98
2 99
3 6
3 12
3 13
3 14
3 20
3 21
3 22
3 23
3 26
3 28
3 29
3 33
3 34
3 36
3 38
3 39
3 41
3 43
3 44
3 46
3 48
3 49
3 50
3 51
3 53
3 54
3 55
3 56
3 57
3 59
3 60
3 62
3 63
3 64
3 68
3 69
3 71
3 75
3 78
3 81
3 82
3 83
3 84
3 86
3 87
3 88
3 91
3 93
3 94
3 95
3 97
3 98
3 99
3 100
4 5
4 6
4 7
4 8
4 9
4 11
4 14
4 18
4 19
4 21
4 23
4 24
4 25
4 26
4 27
4 28
4 31
4 32
4 34
4 40
4 41
4 42
4 43
4 45
4 46
4 51
4 52
4 53
4 55
4 56
4 58
4 59
4 60
4 61
4 65
4 67
4 69
4 71
4 76
4 77
4 78
4 79
4 80
4 82
4 86
4 87
4 88
4 89
4 90
4 91
4 93
4 95
4 96
4 99
5 6
5 7
5 8
5 9
5 10
5 11
5 12
5 13
5 14
5 15
5 16
5 17
5 19
5 20
5 22
5 23
5 26
5 28
5 29
5 30
5 31
5 34
5 37
5 38
5 40
5 41
5 42
5 44
5 45
5 46
5 47
5 48
5 49
5 50
5 51
5 52
5 53
5 55
5 57
5 58
5 59
5 60
5 64
5 65
5 66
5 67
5 68
5 69
5 70
5 72
5 76
5 77
5 80
5 83
5 84
5 85
5 90
5 91
5 93
5 98
5 99
5 100
6 7
6 9
6 11
6 12
6 14
6 15
6 17
6 18
6 20
6 23
6 24
6 25
6 28
6 29
6 30
6 32
6 34
6 36
6 38
6 39
6 43
6 44
6 46
6 48
6 50
6 52
6 53
6 54
6 55
6 57
6 59
6 60
6 61
6 62
6 63
6 64
6 66
6 67
6 68
6 69
6 70
6 71
6 72
6 73
6 76
6 77
6 78
6 80
6 81
6 89
6 90
6 92
6 94
6 97
6 98
6 99
7 8
7 10
7 12
7 14
7 15
7 17
7 18
7 19
7 20
7 22
7 27
7 28
7 29
7 31
7 33
7 34
7 36
7 37
7 38
7 41
7 45
7 46
7 47
7 50
7 52
7 53
7 56
7 57
7 59
7 61
7 62
7 63
7 64
7 65
7 68
7 71
7 73
7 74
7 76
7 78
7 79
7 80
7 81
7 82
7 83
7 84
7 85
7 88
7 89
7 91
7 93
7 95
7 97
7 98
7 99
8 9
8 10
8 12
8 13
8 14
8 15
8 16
8 19
8 20
8 22
8 23
8 26
8 27
8 28
8 30
8 31
8 33
8 38
8 39
8 40
8 42
8 43
8 45
8 46
8 47
8 48
8 49
8 50
8 51
8 52
8 53
8 54
8 56
8 57
8 58
8 60
8 61
8 62
8 63
8 64
8 65
8 66
8 67
8 70
8 72
8 73
8 74
8 76
8 78
8 79
8 80
8 85
8 89
8 91
8 92
8 93
8 94
8 95
8 96
8 98
8 99
9 10
9 11
9 14
9 16
9 18
9 19
9 22
9 23
9 24
9 25
9 26
9 28
9 30
9 31
9 34
9 36
9 37
9 40
9 41
9 42
9 45
9 46
9 48
9 51
9 53
9 54
9 55
9 56
9 57
9 60
9 61
9 65
9 68
9 70
9 71
9 72
9 73
9 75
9 77
9 79
9 81
9 82
9 84
9 85
9 87
9 91
9 93
9 94
9 95
9 96
9 97
9 98
9 99
9 100
10 15
10 16
10 19
10 20
10 22
10 23
10 25
10 27
10 28
10 29
10 30
10 31
10 33
10 35
10 36
10 37
10 40
10 41
10 42
10 43
10 44
10 48
10 49
10 50
10 51
10 52
10 57
10 58
10 59
10 60
10 61
10 63
10 65
10 67
10 69
10 71
10 73
10 74
10 76
10 79
10 80
10 82
10 84
10 87
10 89
10 90
10 92
10 94
10 95
10 97
10 98
10 100
11 12
11 13
11 15
11 16
11 17
11 18
11 19
11 21
11 22
11 24
11 25
11 26
11 27
11 29
11 30
11 31
11 32
11 34
11 38
11 39
11 40
11 41
11 43
11 44
11 46
11 47
11 49
11 50
11 51
11 53
11 56
11 57
11 59
11 61
11 62
11 63
11 64
11 66
11 68
11 70
11 72
11 77
11 78
11 79
11 81
11 82
11 87
11 88
11 91
11 92
11 93
11 94
11 96
11 97
11 98
11 99
11 100
12 14
12 15
12 16
12 18
12 19
12 20
12 22
12 25
12 26
12 27
12 28
12 29
12 31
12 33
12 34
12 35
12 36
12 39
12 41
12 45
12 47
12 49
12 53
12 55
12 56
12 58
12 60
12 61
12 62
12 63
12 65
12 66
12 67
12 68
12 71
12 78
12 80
12 81
12 82
12 83
12 84
12 86
12 87
12 92
12 96
12 97
12 98
12 99
12 100
13 16
13 17
13 19
13 20
13 22
13 25
13 26
13 29
13 30
13 31
13 32
13 34
13 35
13 36
13 37
13 38
13 39
13 49
13 50
13 52
13 54
13 55
13 58
13 60
13 61
13 66
13 67
13 70
13 72
13 73
13 74
13 77
13 81
13 82
13 87
13 88
13 90
13 92
13 93
13 94
13 95
13 96
13 98
13 99
13 100
14 19
14 20
14 22
14 24
14 26
14 27
14 28
14 29
14 31
14 32
14 33
14 35
14 36
14 38
14 41
14 42
14 44
14 50
14 52
14 54
14 55
14 58
14 60
14 62
14 64
14 66
14 75
14 76
14 77
14 78
14 80
14 81
14 83
14 84
14 89
14 91
14 93
14 94
14 95
14 96
14 98
14 99
15 16
15 17
15 18
15 19
15 20
15 21
15 22
15 24
15 25
15 27
15 28
15 29
15 33
15 34
15 36
15 38
15 39
15 41
15 42
15 43
15 44
15 45
15 46
15 47
15 48
15 52
15 54
15 55
15 56
15 57
15 58
15 60
15 61
15 63
15 67
15 70
15 73
15 76
15 77
15 79
15 80
15 81
15 82
15 86
15 88
15 89
15 92
15 93
15 97
15 98
15 99
16 17
16 20
16 23
16 26
16 27
16 28
16 30
16 31
16 32
16 35
16 37
16 38
16 39
16 41
16 42
16 43
16 46
16 47
16 48
16 49
16 50
16 51
16 52
16 53
16 54
16 58
16 60
16 61
16 62
16 65
16 66
16 67
16 68
16 69
16 70
16 72
16 79
16 81
16 83
16 86
16 87
16 89
16 90
16 91
16 93
16 95
16 97
16 99
17 18
17 19
17 21
17 22
17 26
17 27
17 28
17 30
17 31
17 32
17 33
17 34
17 36
17 37
17 39
17 40
17 43
17 44
17 47
17 49
17 50
17 51
17 53
17 56
17 57
17 59
17 60
17 62
17 63
17 64
17 69
17 70
17 72
17 74
17 75
17 76
17 78
17 79
17 80
17 83
17 85
17 86
17 88
17 89
17 90
17 91
17 92
17 93
17 94
17 95
17 100
18 19
18 21
18 22
18 25
18 26
18 29
18 31
18 33
18 37
18 40
18 41
18 42
18 43
18 44
18 46
18 47
18 48
18 49
18 50
18 52
18 53
18 55
18 56
18 58
18 59
18 61
18 63
18 65
18 66
18 67
18 68
18 69
18 72
18 74
18 75
18 77
18 80
18 81
18 83
18 84
18 85
18 87
18 88
18 90
18 91
18 92
18 94
18 95
18 98
18 100
19 21
19 24
19 25
19 26
19 27
19 28
19 29
19 32
19 36
19 37
19 38
19 40
19 41
19 42
19 43
19 44
19 45
19 46
19 47
19 48
19 49
19 50
19 51
19 53
19 54
19 55
19 56
19 60
19 66
19 67
19 68
19 70
19 71
19 72
19 73
19 74
19 75
19 77
19 78
19 79
19 87
19 88
19 89
19 91
19 92
19 95
19 99
19 100
20 21
20 22
20 24
20 25
20 26
20 27
20 29
20 30
20 31
20 33
20 35
20 39
20 40
20 41
20 44
20 46
20 48
20 50
20 51
20 52
20 53
20 54
20 55
20 57
20 58
20 59
20 60
20 61
20 62
20 63
20 64
20 66
20 70
20 71
20 72
20 73
20 74
20 76
20 78
20 79
20 83
20 85
20 87
20 88
20 90
20 91
20 92
20 94
20 95
20 96
20 97
20 99
20 100
21 22
21 23
21 24
21 25
21 26
21 27
21 29
21 30
21 32
21 34
21 35
21 36
21 37
21 38
21 39
21 40
21 41
21 42
21 47
21 48
21 49
21 50
21 52
21 53
21 55
21 57
21 59
21 60
21 62
21 64
21 66
21 67
21 68
21 69
21 72
21 73
21 74
21 75
21 77
21 78
21 80
21 82
21 84
21 85
21 86
21 87
21 89
21 90
21 91
21 92
21 93
21 95
21 97
21 99
21 100
22 23
22 24
22 25
22 26
22 27
22 29
22 30
22 31
22 34
22 35
22 36
22 38
22 41
22 44
22 45
22 46
22 48
22 49
22 50
22 53
22 54
22 55
22 57
22 59
22 62
22 65
22 66
22 67
22 69
22 73
22 74
22 76
22 77
22 78
22 79
22 81
22 82
22 83
22 84
22 88
22 92
22 94
22 95
22 96
22 97
22 99
23 25
23 26
23 27
23 28
23 29
23 30
23 31
23 32
23 34
23 35
23 39
23 41
23 42
23 43
23 44
23 45
23 49
23 51
23 52
23 53
23 54
23 56
23 57
23 61
23 62
23 63
23 64
23 66
23 68
23 69
23 71
23 72
23 74
23 75
23 76
23 77
23 78
23 79
23 80
23 81
23 82
23 86
23 87
23 88
23 90
23 92
23 93
23 95
23 99
23 100
24 25
24 28
24 29
24 30
24 31
24 35
24 36
24 37
24 39
24 41
24 42
24 43
24 45
24 46
24 48
24 50
24 51
24 54
24 55
24 56
24 58
24 59
24 63
24 64
24 65
24 66
24 69
24 70
24 71
24 72
24 74
24 75
24 76
24 77
24 79
24 81
24 82
24 83
24 87
24 90
24 98
24 100
25 26
25 28
25 33
25 34
25 36
25 37
25 39
25 41
25 42
25 44
25 46
25 48
25 49
25 50
25 51
25 52
25 53
25 55
25 56
25 57
25 58
25 61
25 62
25 63
25 64
25 65
25 66
25 69
25 74
25 76
25 77
25 78
25 80
25 81
25 82
25 83
25 84
25 86
25 87
25 88
25 89
25 90
25 92
25 94
25 95
25 96
25 97
25 98
25 100
26 27
26 28
26 29
26 32
26 33
26 36
26 38
26 40
26 44
26 48
26 50
26 52
26 54
26 55
26 57
26 60
26 61
26 62
26 63
26 64
26 65
26 66
26 67
26 68
26 71
26 72
26 75
26 76
26 77
26 79
26 80
26 88
26 89
26 91
26 93
26 94
26 95
26 96
26 97
26 99
26 100
27 30
27 31
27 33
27 34
27 36
27 38
27 39
27 40
27 41
27 42
27 46
27 47
27 49
27 51
27 52
27 53
27 54
27 55
27 56
27 57
27 58
27 61
27 63
27 69
27 70
27 71
27 72
27 74
27 76
27 77
27 78
27 79
27 80
27 82
27 83
27 84
27 85
27 86
27 90
27 91
27 92
27 93
27 94
27 95
27 96
27 98
27 100
28 32
28 33
28 35
28 36
28 37
28 39
28 40
28 42
28 43
28 44
28 45
28 48
28 49
28 50
28 51
28 55
28 56
28 58
28 60
28 61
28 62
28 66
28 67
28 68
28 69
28 70
28 73
28 74
28 77
28 78
28 79
28 80
28 81
28 82
28 84
28 85
28 87
28 88
28 89
28 91
28 97
28 99
29 30
29 32
29 33
29 34
29 35
29 38
29 45
29 47
29 48
29 49
29 50
29 52
29 54
29 58
29 59
29 60
29 62
29 63
29 64
29 66
29 67
29 69
29 70
29 71
29 73
29 74
29 75
29 76
29 80
29 81
29 83
29 87
29 88
29 90
29 91
29 92
29 96
29 99
29 100
30 31
30 32
30 34
30 36
30 38
30 39
30 40
30 41
30 42
30 43
30 44
30 45
30 47
30 50
30 51
30 52
30 54
30 55
30 56
30 57
30 60
30 63
30 66
30 67
30 69
30 71
30 73
30 75
30 77
30 78
30 79
30 82
30 85
30 89
30 91
30 92
30 93
30 94
30 96
30 97
30 98
30 99
30 100
31 32
31 41
31 42
31 43
31 44
31 46
31 47
31 48
31 49
31 50
31 51
31 53
31 54
31 58
31 59
31 61
31 62
31 65
31 66
31 70
31 71
31 73
31 74
31 75
31 79
31 81
31 83
31 84
31 86
31 87
31 90
31 92
31 94
31 95
31 97
31 99
31 100
32 33
32 34
32 38
32 39
32 40
32 42
32 45
32 46
32 47
32 48
32 49
32 50
32 51
32 52
32 54
32 56
32 57
32 58
32 60
32 61
32 63
32 64
32 70
32 71
32 72
32 73
32 74
32 75
32 76
32 77
32 78
32 81
32 83
32 84
32 85
32 86
32 87
32 88
32 89
32 90
32 93
32 95
32 98
32 99
33 34
33 35
33 38
33 39
33 42
33 43
33 44
33 45
33 46
33 47
33 49
33 50
33 52
33 53
33 55
33 56
33 60
33 61
33 63
33 65
33 66
33 69
33 71
33 72
33 74
33 76
33 78
33 79
33 81
33 83
33 84
33 85
33 86
33 87
33 88
33 90
33 91
33 92
33 95
33 97
33 98
33 99
34 35
34 36
34 37
34 39
34 40
34 41
34 42
34 43
34 44
34 45
34 47
34 49
34 50
34 53
34 54
34 57
34 58
34 59
34 60
34 64
34 65
34 67
34 68
34 69
34 70
34 71
34 73
34 75
34 76
34 77
34 78
34 79
34 80
34 82
34 83
34 84
34 85
34 86
34 88
34 89
34 94
34 95
34 96
34 97
34 100
35 37
35 38
35 40
35 41
35 43
35 45
35 46
35 49
35 50
35 51
35 52
35 53
35 54
35 55
35 57
35 59
35 61
35 64
35 66
35 67
35 69
35 70
35 73
35 74
35 75
35 76
35 81
35 84
35 85
35 87
35 92
35 97
35 98
36 37
36 38
36 39
36 41
36 42
36 44
36 47
36 49
36 50
36 53
36 55
36 56
36 57
36 59
36 61
36 62
36 64
36 67
36 68
36 69
36 70
36 71
36 72
36 74
36 75
36 76
36 77
36 78
36 79
36 82
36 84
36 85
36 86
36 87
36 88
36 89
36 91
36 92
36 93
36 94
36 96
36 98
36 99
37 39
37 40
37 41
37 49
37 50
37 52
37 54
37 56
37 60
37 61
37 62
37 63
37 68
37 69
37 70
37 72
37 74
37 77
37 79
37 80
37 83
37 86
37 91
37 93
37 94
37 95
37 97
37 98
37 99
38 41
38 43
38 46
38 48
38 52
38 53
38 57
38 59
38 60
38 63
38 64
38 66
38 68
38 69
38 71
38 73
38 74
38 77
38 78
38 79
38 80
38 82
38 84
38 85
38 86
38 87
38 91
38 92
38 93
38 94
38 95
38 96
39 40
39 41
39 46
39 48
39 49
39 53
39 54
39 56
39 59
39 60
39 61
39 63
39 66
39 68
39 69
39 70
39 72
39 74
39 75
39 76
39 78
39 79
39 81
39 84
39 86
39 87
39 89
39 90
39 91
39 92
39 93
39 94
39 96
39 98
39 100
40 41
40 42
40 45
40 46
40 48
40 49
40 50
40 52
40 56
40 57
40 58
40 60
40 61
40 62
40 63
40 65
40 71
40 74
40 75
40 76
40 78
40 79
40 80
40 83
40 84
40 85
40 86
40 87
40 88
40 89
40 90
40 91
40 92
40 94
40 95
40 96
40 98
40 99
40 100
41 43
41 44
41 45
41 46
41 48
41 49
41 50
41 51
41 52
41 53
41 56
41 59
41 60
41 62
41 63
41 64
41 65
41 68
41 69
41 72
41 73
41 75
41 76
41 78
41 80
41 81
41 82
41 83
41 85
41 86
41 87
41 88
41 91
41 93
41 94
41 95
41 97
41 98
41 99
41 100
42 44
42 45
42 48
42 49
42 52
42 54
42 56
42 57
42 58
42 61
42 62
42 63
42 64
42 66
42 67
42 71
42 73
42 75
42 76
42 78
42 79
42 80
42 81
42 83
42 84
42 85
42 86
42 87
42 89
42 90
42 91
42 92
42 94
42 96
42 97
42 98
42 99
42 100
43 44
43 46
43 47
43 48
43 49
43 50
43 51
43 52
43 53
43 55
43 56
43 57
43 58
43 59
43 60
43 61
43 62
43 63
43 64
43 66
43 70
43 71
43 73
43 74
43 75
43 76
43 77
43 78
43 79
43 81
43 83
43 84
43 86
43 89
43 90
43 91
43 93
43 95
43 96
43 97
43 98
43 99
44 45
44 46
44 47
44 48
44 49
44 51
44 52
44 54
44 57
44 60
44 64
44 69
44 70
44 71
44 73
44 75
44 76
44 77
44 78
44 79
44 80
44 81
44 85
44 86
44 87
44 88
44 89
44 90
44 91
44 92
44 93
44 94
44 97
44 98
44 100
45 46
45 48
45 49
45 51
45 53
45 55
45 56
45 57
45 58
45 59
45 60
45 61
45 62
45 65
45 66
45 67
45 68
45 69
45 70
45 73
45 77
45 78
45 82
45 83
45 84
45 86
45 89
45 90
45 91
45 92
45 93
45 95
45 96
45 97
45 98
45 99
45 100
46 51
46 52
46 53
46 55
46 56
46 57
46 58
46 59
46 60
46 63
46 64
46 66
46 67
46 69
46 71
46 73
46 75
46 76
46 77
46 78
46 79
46 80
46 84
46 85
46 89
46 90
46 92
46 93
46 95
46 96
46 97
46 98
46 99
47 49
47 52
47 53
47 55
47 58
47 59
47 60
47 61
47 63
47 64
47 67
47 69
47 70
47 71
47 72
47 74
47 75
47 77
47 79
47 81
47 82
47 83
47 84
47 87
47 88
47 89
47 90
47 92
47 94
47 97
47 98
47 99
48 49
48 50
48 51
48 52
48 55
48 56
48 57
48 58
48 59
48 60
48 62
48 63
48 64
48 67
48 68
48 70
48 71
48 72
48 73
48 75
48 77
48 78
48 80
48 81
48 82
48 83
48 85
48 86
48 87
48 90
48 94
48 95
48 99
49 51
49 52
49 54
49 55
49 58
49 59
49 60
49 61
49 62
49 65
49 66
49 67
49 68
49 69
49 70
49 71
49 75
49 76
49 77
49 78
49 79
49 81
49 82
49 83
49 85
49 86
49 91
49 94
49 95
49 96
49 99
49 100
50 51
50 52
50 54
50 57
50 58
50 59
50 60
50 61
50 62
50 64
50 67
50 68
50 69
50 70
50 71
50 72
50 73
50 76
50 77
50 78
50 79
50 84
50 88
50 89
50 90
50 92
50 93
50 94
50 95
50 99
51 52
51 53
51 55
51 56
51 58
51 59
51 60
51 61
51 63
51 64
51 67
51 68
51 69
51 70
51 71
51 74
51 75
51 76
51 77
51 79
51 80
51 81
51 82
51 84
51 86
51 87
51 90
51 92
51 93
51 95
51 96
51 99
52 53
52 54
52 56
52 59
52 60
52 62
52 66
52 67
52 68
52 70
52 71
52 72
52 73
52 75
52 77
52 78
52 81
52 82
52 83
52 84
52 85
52 88
52 89
52 91
52 92
52 93
52 96
52 98
53 54
53 56
53 58
53 59
53 60
53 63
53 64
53 65
53 66
53 68
53 69
53 70
53 72
53 76
53 77
53 78
53 79
53 80
53 81
53 84
53 85
53 86
53 88
53 89
53 90
53 91
53 93
53 94
53 95
53 96
53 97
53 98
53 99
54 58
54 60
54 61
54 63
54 65
54 66
54 68
54 70
54 72
54 73
54 74
54 76
54 79
54 80
54 83
54 84
54 88
54 91
54 92
54 93
54 95
55 56
55 61
55 63
55 65
55 66
55 67
55 68
55 69
55 70
55 71
55 72
55 75
55 79
55 83
55 84
55 87
55 88
55 89
55 91
55 92
55 93
55 94
55 96
55 98
55 100
56 57
56 58
56 59
56 60
56 61
56 63
56 65
56 66
56 67
56 68
56 69
56 70
56 73
56 75
56 76
56 78
56 81
56 83
56 84
56 86
56 87
56 89
56 93
56 94
56 95
56 96
56 97
57 59
57 60
57 63
57 64
57 65
57 67
57 70
57 73
57 75
57 76
57 77
57 83
57 84
57 85
57 86
57 87
57 88
57 89
57 90
57 91
57 92
57 94
57 97
57 98
58 59
58 65
58 69
58 72
58 73
58 74
58 76
58 78
58 79
58 83
58 84
58 85
58 86
58 87
58 88
58 89
58 90
58 91
58 92
58 95
58 96
58 99
58 100
59 60
59 62
59 64
59 65
59 66
59 68
59 69
59 71
59 73
59 74
59 79
59 81
59 85
59 86
59 87
59 88
59 89
59 90
59 91
59 93
59 94
59 95
59 98
59 100
60 61
60 62
60 63
60 65
60 67
60 68
60 69
60 73
60 74
60 77
60 78
60 79
60 81
60 86
60 88
60 89
60 90
60 91
60 92
60 93
60 95
60 96
60 97
60 98
61 62
61 63
61 64
61 67
61 68
61 69
61 70
61 71
61 72
61 73
61 77
61 79
61 81
61 85
61 91
61 92
61 93
61 94
61 95
61 96
61 97
61 99
61 100
62 63
62 64
62 65
62 66
62 67
62 68
62 70
62 71
62 72
62 74
62 75
62 76
62 77
62 78
62 80
62 82
62 83
62 86
62 89
62 90
62 92
62 93
62 94
62 98
62 99
62 100
63 64
63 65
63 66
63 67
63 68
63 70
63 71
63 72
63 73
63 74
63 76
63 77
63 80
63 82
63 84
63 87
63 88
63 90
63 91
63 92
63 93
63 94
63 95
63 97
63 98
63 99
63 100
64 65
64 66
64 69
64 71
64 75
64 76
64 77
64 78
64 79
64 81
64 82
64 84
64 85
64 88
64 89
64 90
64 92
64 93
64 94
64 95
64 96
65 66
65 68
65 69
65 76
65 78
65 79
65 80
65 81
65 84
65 85
65 86
65 87
65 88
65 89
65 90
65 92
65 93
65 94
65 95
65 96
65 97
65 99
65 100
66 67
66 72
66 74
66 75
66 76
66 79
66 80
66 81
66 82
66 83
66 84
66 85
66 87
66 88
66 90
66 91
66 94
66 95
66 97
66 98
67 70
67 71
67 72
67 73
67 75
67 77
67 79
67 80
67 81
67 82
67 86
67 87
67 89
67 93
67 95
67 96
67 99
67 100
68 71
68 72
68 73
68 74
68 76
68 78
68 79
68 82
68 83
68 86
68 87
68 88
68 89
68 90
68 92
68 94
68 95
68 98
69 70
69 72
69 73
69 78
69 79
69 82
69 84
69 85
69 86
69 88
69 89
69 92
69 94
69 95
69 96
69 97
69 99
70 72
70 74
70 77
70 78
70 79
70 81
70 83
70 85
70 88
70 91
70 92
70 95
70 97
70 98
70 99
70 100
71 78
71 79
71 80
71 81
71 82
71 84
71 85
71 88
71 89
71 93
71 94
71 95
71 97
71 98
71 99
72 75
72 76
72 77
72 79
72 81
72 85
72 86
72 87
72 89
72 90
72 92
72 94
72 97
72 99
72 100
73 74
73 75
73 77
73 79
73 80
73 81
73 83
73 84
73 85
73 86
73 87
73 88
73 89
73 90
73 91
73 92
73 93
73 95
73 96
73 97
73 98
73 99
74 76
74 78
74 79
74 84
74 85
74 87
74 91
74 93
74 94
74 96
74 97
74 98
74 99
75 78
75 79
75 81
75 83
75 84
75 86
75 87
75 88
75 89
75 91
75 92
75 95
75 97
75 98
75 99
76 79
76 83
76 85
76 86
76 87
76 91
76 92
76 93
76 94
76 95
76 96
76 97
76 98
76 99
76 100
77 78
77 80
77 81
77 82
77 83
77 84
77 85
77 86
77 87
77 90
77 91
77 92
77 93
77 94
77 96
77 97
77 99
77 100
78 79
78 84
78 87
78 88
78 90
78 91
78 92
78 93
78 96
78 97
78 98
78 99
78 100
79 80
79 81
79 82
79 83
79 85
79 86
79 87
79 88
79 89
79 90
79 91
79 92
79 93
79 94
79 95
79 96
79 97
79 98
79 99
80 81
80 83
80 86
80 87
80 88
80 90
80 92
80 95
80 97
80 98
80 99
80 100
81 82
81 83
81 84
81 85
81 86
81 87
81 88
81 89
81 90
81 93
81 94
81 95
81 96
81 97
81 99
82 84
82 86
82 87
82 88
82 91
82 92
82 93
82 94
82 95
82 96
82 97
82 98
82 99
82 100
83 84
83 87
83 88
83 89
83 91
83 93
83 96
83 97
84 85
84 86
84 87
84 88
84 89
84 90
84 91
84 92
84 93
84 95
84 97
84 98
85 86
85 88
85 91
85 94
85 96
85 97
85 98
85 99
85 100
86 87
86 89
86 91
86 94
86 98
86 99
86 100
87 93
87 94
87 95
87 96
87 97
87 98
87 99
88 91
88 92
88 94
88 95
88 99
88 100
89 90
89 91
89 92
89 93
89 95
89 96
89 97
89 98
89 99
90 91
90 93
90 94
90 95
90 99
90 100
91 93
91 95
91 97
91 99
91 100
92 97
92 100
93 94
93 98
93 100
94 95
94 96
94 98
94 99
94 100
95 96
95 97
95 99
96 98
96 99
96 100
97 98
97 100
99 100
